WARNING: for repeatability, setting FPU to use double precision
============================[ Problem Statistics ]=============================
|                                                                             |
|  Number of variables:           100                                         |
|  Number of clauses:             449                                         |
|  Parse time:                   0.00 s                                       |
|  Eliminated clauses:           0.00 Mb                                      |
|  Simplification time:          0.00 s                                       |
|                                                                             |
============================[ Search Statistics ]==============================
| Conflicts |          ORIGINAL         |          LEARNT          | Progress |
|           |    Vars  Clauses Literals |    Limit  Clauses Lit/Cl |          |
===============================================================================
|       100 |      98      445     1355 |      163      100      7 |  0.010 % |
===============================================================================
restarts              : 2
conflicts             : 154            (53269 /sec)
decisions             : 221            (0.00 % random) (76444 /sec)
propagations          : 3276           (1133172 /sec)
conflict literals     : 1058           (14.47 % deleted)
Memory used           : 13.00 MB
CPU time              : 0.002891 s

SATISFIABLE
